(set-option :produce-models true)
(set-logic QF_UF)
(declare-fun p86() Bool)
(declare-fun p76() Bool)
(declare-fun p57() Bool)
(declare-fun p70() Bool)
(declare-fun p3() Bool)
(declare-fun p13() Bool)
(declare-fun p92() Bool)
(declare-fun p87() Bool)
(declare-fun p43() Bool)
(declare-fun p93() Bool)
(declare-fun p36() Bool)
(declare-fun p21() Bool)
(declare-fun p17() Bool)
(declare-fun p9() Bool)
(declare-fun p78() Bool)
(declare-fun p7() Bool)
(declare-fun p63() Bool)
(declare-fun p68() Bool)
(declare-fun p25() Bool)
(declare-fun p62() Bool)
(declare-fun p65() Bool)
(declare-fun p6() Bool)
(declare-fun p19() Bool)
(declare-fun p32() Bool)
(declare-fun p24() Bool)
(declare-fun p58() Bool)
(declare-fun p84() Bool)
(declare-fun p40() Bool)
(declare-fun p97() Bool)
(declare-fun p11() Bool)
(declare-fun p48() Bool)
(declare-fun p33() Bool)
(declare-fun p29() Bool)
(declare-fun p91() Bool)
(declare-fun p74() Bool)
(declare-fun p71() Bool)
(declare-fun p1() Bool)
(declare-fun p81() Bool)
(declare-fun p80() Bool)
(declare-fun p98() Bool)
(declare-fun p72() Bool)
(declare-fun p96() Bool)
(declare-fun p73() Bool)
(declare-fun p12() Bool)
(declare-fun p8() Bool)
(declare-fun p26() Bool)
(declare-fun p10() Bool)
(declare-fun p41() Bool)
(declare-fun p2() Bool)
(declare-fun p37() Bool)
(declare-fun p45() Bool)
(declare-fun p34() Bool)
(declare-fun p47() Bool)
(declare-fun p39() Bool)
(declare-fun p42() Bool)
(declare-fun p79() Bool)
(declare-fun p50() Bool)
(declare-fun p59() Bool)
(declare-fun p0() Bool)
(declare-fun p20() Bool)
(declare-fun p23() Bool)
(declare-fun p99() Bool)
(declare-fun p54() Bool)
(declare-fun p61() Bool)
(declare-fun p90() Bool)
(declare-fun p38() Bool)
(declare-fun p82() Bool)
(declare-fun p88() Bool)
(declare-fun p5() Bool)
(declare-fun p15() Bool)
(declare-fun p95() Bool)
(declare-fun p69() Bool)
(declare-fun p35() Bool)
(declare-fun p64() Bool)
(declare-fun p16() Bool)
(declare-fun p22() Bool)
(declare-fun p52() Bool)
(declare-fun p60() Bool)
(declare-fun p55() Bool)
(declare-fun p31() Bool)
(declare-fun p30() Bool)
(declare-fun p18() Bool)
(declare-fun p49() Bool)
(declare-fun p46() Bool)
(declare-fun p89() Bool)
(declare-fun p66() Bool)
(declare-fun p4() Bool)
(declare-fun p85() Bool)
(declare-fun p51() Bool)
(declare-fun p77() Bool)
(declare-fun p83() Bool)
(declare-fun p75() Bool)
(declare-fun p53() Bool)
(declare-fun p67() Bool)
(declare-fun p56() Bool)
(declare-fun p94() Bool)
(declare-fun p14() Bool)
(declare-fun p44() Bool)
(declare-fun p28() Bool)
(declare-fun p27() Bool)
(assert
(and (or (not p86) (not p76) (not p57)) (or (not p70) (not p3) (not p13)) (or (not p92) p87 (not p3)) (or p43 p93 (not p36)) (or p21 p17 (not p3)) (or (not p9) (not p78) (not p7)) (or (not p63) (not p68) p25) (or p62 p65 p63) (or p6 p19 (not p32)) (or p24 p58 p84) (or (not p40) p97 (not p11)) (or p48 (not p33) (not p29)) (or (not p48) (not p91) (not p76)) (or p74 (not p6) p71) (or p9 (not p1) (not p71)) (or (not p81) (not p80) (not p87)) (or p32 p98 p72) (or p96 (not p80) p73) (or p12 p57 (not p8)) (or p26 (not p10) (not p10)) (or (not p41) (not p96) (not p2)) (or p84 p37 p45) (or (not p34) p2 p47) (or (not p39) p86 (not p32)) (or (not p93) p42 (not p24)) (or (not p74) (not p93) (not p37)) (or (not p79) (not p7) (not p79)) (or (not p50) p9 (not p59)) (or p73 p63 (not p0)) (or (not p7) p65 (not p20)) (or p23 (not p99) p54) (or p61 p90 p29) (or p38 (not p32) p61) (or p86 p42 p9) (or (not p82) (not p88) (not p23)) (or p42 p82 p5) (or (not p39) p15 p13) (or (not p73) p95 p69) (or p35 (not p3) (not p57)) (or p64 (not p16) p22) (or (not p24) (not p9) p63) (or (not p42) (not p42) (not p65)) (or p63 (not p32) (not p74)) (or (not p21) p39 (not p26)) (or p24 (not p47) p52) (or p88 p88 p88) (or p69 p76 (not p62)) (or p36 (not p52) p1) (or p7 p0 p87) (or p2 (not p99) p60) (or (not p54) (not p50) p55) (or (not p50) p43 (not p69)) (or p31 (not p72) (not p32)) (or (not p39) p33 (not p3)) (or (not p31) (not p43) (not p30)) (or (not p54) (not p64) (not p95)) (or p73 p18 p2) (or (not p59) (not p95) p62) (or p7 (not p49) (not p45)) (or (not p46) p91 p63) (or (not p89) p32 p96) (or (not p17) p87 p66) (or p11 p82 p15) (or (not p73) p30 p96) (or (not p19) (not p80) p78) (or (not p1) (not p72) (not p3)) (or p93 p52 p49) (or p58 (not p45) (not p3)) (or p17 p31 (not p47)) (or (not p10) (not p69) p98) (or (not p4) p85 (not p50)) (or (not p51) (not p49) (not p23)) (or p25 p86 (not p63)) (or p73 p48 (not p90)) (or p70 p33 (not p86)) (or p3 p8 (not p0)) (or (not p76) p89 p64) (or p38 p25 p87) (or (not p45) p59 (not p77)) (or p21 (not p0) p72) (or p65 (not p64) p41) (or p85 (not p6) p83) (or p8 p0 p75) (or (not p95) p2 p90) (or (not p92) p20 (not p69)) (or (not p55) (not p91) p42) (or (not p91) p92 (not p52)) (or p23 (not p59) p45) (or p47 p43 p46) (or p43 p88 p74) (or (not p21) p8 p33) (or (not p2) (not p39) p49) (or (not p3) (not p97) p58) (or p52 (not p75) p16) (or (not p21) p45 (not p87)) (or p78 (not p2) p47) (or p16 (not p39) p85) (or p7 (not p80) (not p10)) (or (not p73) (not p98) (not p53)) (or (not p30) p8 p86) (or (not p55) (not p67) p9) (or p18 (not p55) p45) (or (not p98) (not p76) (not p29)) (or (not p85) (not p84) p67) (or p42 p73 p99) (or p30 (not p45) p23) (or p46 (not p48) p91) (or p79 (not p45) (not p93)) (or (not p86) (not p69) (not p71)) (or p50 p26 (not p35)) (or p56 p3 p36) (or (not p77) p54 p65) (or p13 p61 p94) (or p68 p83 (not p25)) (or (not p18) (not p78) (not p14)) (or (not p44) (not p92) (not p66)) (or p7 p22 (not p28)) (or p62 (not p64) (not p37)) (or p33 (not p81) p6) (or (not p38) (not p66) (not p57)) (or p70 p65 (not p32)) (or (not p92) (not p78) p27) (or (not p57) p17 (not p73)) (or p33 p84 (not p49)) (or p73 p19 p41) (or (not p32) p20 p69) (or p77 p22 p49) (or (not p12) (not p5) (not p81)) (or (not p66) (not p46) p68) (or p91 p12 (not p86)) (or p86 (not p71) p26) (or (not p95) (not p48) p26) (or p85 (not p22) p68) (or (not p71) p57 p44) (or (not p20) (not p93) (not p56)) (or (not p7) p45 p85) (or p62 p88 p55) (or (not p53) p31 p28) (or (not p86) p60 p24) (or (not p96) (not p82) p6) (or p12 (not p51) p69) (or (not p5) (not p34) (not p76)) (or p39 (not p92) p44) (or p80 p85 (not p4)) (or (not p51) p89 p30) (or (not p96) (not p4) (not p94)) (or p62 p57 p89) (or (not p77) (not p24) (not p9)) (or p35 (not p94) p78) (or (not p80) p79 p5) (or (not p63) p34 p43) (or (not p11) (not p69) (not p64)) (or p58 (not p55) p17) (or p48 p60 p7) (or (not p96) p58 p71) (or (not p27) p7 p62) (or (not p81) (not p53) (not p26)) (or (not p78) p55 p50) (or (not p54) (not p94) (not p5)) (or (not p99) (not p63) (not p99)) (or (not p96) (not p5) (not p32)) (or p26 p82 p35) (or (not p61) (not p2) p34) (or (not p15) p56 (not p91)) (or (not p23) p28 p28) (or p3 p92 (not p96)) (or (not p3) (not p29) p69) (or (not p17) (not p81) p65) (or p22 p69 (not p42)) (or p22 (not p59) (not p69)) (or (not p31) (not p49) p38) (or (not p38) (not p2) (not p63)) (or (not p32) p63 (not p75)) (or p56 p42 (not p68)) (or (not p66) p71 (not p40)) (or p78 p9 p52) (or (not p37) p2 (not p89)) (or p13 p11 p78) (or p22 (not p48) (not p96)) (or p83 (not p8) p55) (or p46 (not p26) (not p90)) (or p99 p68 (not p70)) (or p31 (not p35) p67) (or (not p97) (not p56) (not p60)) (or (not p20) (not p50) (not p59)) (or p24 p69 p1) (or p85 p79 (not p40)) (or (not p84) (not p12) p98) (or p5 (not p95) p68) (or p13 (not p58) p27) (or p73 (not p37) (not p11)) (or p87 p64 (not p4)) (or p95 (not p44) p97) (or (not p91) (not p60) (not p90)) (or p25 p68 p3) (or p26 p73 p45) (or (not p18) (not p50) p12) (or p80 (not p3) p44) (or p76 p2 p32) (or p40 (not p59) (not p8)) (or p73 (not p69) p38) (or p4 (not p93) (not p87)) (or (not p19) (not p16) (not p1)) (or (not p10) p38 (not p88)) (or (not p40) p38 (not p69)) (or p94 (not p17) (not p13)) (or (not p64) p2 p52) (or (not p35) (not p78) (not p97)) (or p60 (not p73) p43) (or (not p90) (not p22) (not p18)) (or (not p41) (not p36) (not p91)) (or (not p65) (not p61) (not p43)) (or p98 p48 (not p1)) (or (not p76) (not p68) p32) (or p14 p80 p95) (or p22 (not p75) p93) (or (not p8) p22 (not p91)) (or p91 (not p71) (not p5)) (or (not p48) p39 (not p44)) (or p86 p54 (not p91)) (or (not p63) (not p29) (not p88)) (or (not p5) (not p16) p51) (or (not p98) p40 p8) (or p64 (not p72) p96) (or p51 (not p42) (not p11)) (or (not p99) (not p0) (not p37)) (or (not p42) p21 p14) (or p26 (not p3) (not p16)) (or p80 p39 p44) (or (not p29) p14 (not p38)) (or (not p92) (not p50) p80) (or p41 p27 p61) (or (not p68) p92 (not p38)) (or p87 p69 p9) (or p92 p40 p49) (or p48 (not p34) p89) (or p22 p63 p10) (or (not p55) (not p92) (not p60)) (or p3 (not p46) p36) (or (not p47) (not p48) p79) (or p82 p18 (not p17)) (or (not p68) p50 (not p0)) (or (not p11) p96 p77) (or (not p75) (not p38) p75) (or p1 (not p79) p86) (or (not p16) (not p14) (not p94)) (or (not p35) (not p29) (not p90)) (or (not p60) p47 (not p82)) (or (not p73) (not p95) p22) (or p58 (not p88) p87) (or (not p98) (not p15) (not p59)) (or (not p46) p78 p90) (or (not p89) p0 (not p9)) (or p34 (not p14) (not p76)) (or p77 (not p81) p79) (or (not p30) (not p11) (not p96)) (or (not p19) p81 p51) (or (not p50) (not p91) (not p18)) (or (not p28) (not p20) (not p39)) (or p82 p1 (not p31)) (or p30 (not p23) p29) (or p70 p82 p99) (or (not p90) p47 p69) (or (not p79) (not p33) p21) (or p66 p98 p30) (or (not p5) (not p18) p22) (or p13 (not p22) (not p6)) (or p54 p53 (not p13)) (or p92 (not p59) p74) (or p47 (not p49) p24) (or (not p5) (not p32) p73) (or (not p82) (not p31) (not p72)) (or (not p35) p1 p37) (or (not p47) p64 (not p30)) (or p81 p33 p35) (or p14 (not p21) p62) (or (not p2) p99 p2) (or (not p26) p47 p36) (or (not p88) p54 (not p52)) (or (not p4) (not p74) p11) (or (not p68) (not p36) p62) (or (not p61) p1 (not p32)) (or p82 (not p78) (not p32)) (or p58 p76 p35) (or (not p33) (not p27) p12) (or p44 (not p82) (not p91)) (or p30 p30 (not p40)) (or (not p1) (not p74) (not p55)) (or (not p11) (not p87) p35) (or (not p96) (not p97) (not p15)) (or (not p12) (not p85) p1) (or p23 p28 p36) (or (not p20) p31 p67) (or (not p52) p26 (not p79)) (or (not p24) (not p63) p59) (or p29 p65 p39) (or p92 p14 p50) (or p23 p82 p0) (or (not p95) p54 (not p7)) (or p6 (not p28) (not p66)) (or p80 (not p37) (not p3)) (or (not p78) (not p43) p2) (or p15 p74 p74) (or p67 p32 p97) (or p34 (not p29) (not p24)) (or p34 p70 p75) (or (not p54) p46 (not p69)) (or p90 p43 p59) (or (not p68) p69 p76) (or (not p86) p58 p12) (or p55 (not p83) (not p45)) (or (not p7) p18 (not p73)) (or p64 (not p11) p97) (or (not p95) p66 (not p14)) (or p4 p37 (not p93)) (or (not p73) p99 p90) (or p85 p95 p97) (or (not p87) p8 p91) (or (not p20) (not p49) (not p92)) (or (not p64) p91 p50) (or p8 p5 p80) (or (not p28) (not p26) (not p30)) (or p41 (not p5) (not p70)) (or p55 (not p20) p9) (or (not p10) (not p30) (not p89)) (or p81 p59 (not p97)) (or p12 p97 p22) (or (not p23) (not p51) p79) (or (not p86) (not p61) p86) (or (not p12) p76 (not p78)) (or p85 p7 (not p1)) (or p76 (not p23) p78) (or p4 (not p53) (not p10)) (or (not p41) (not p3) p10) (or p25 p58 (not p79)) (or p52 p30 (not p16)) (or p44 (not p60) p95) (or p58 p77 (not p59)) (or (not p54) p60 (not p67)) (or p1 p19 p15) (or p89 p84 p73) (or (not p32) (not p7) p76) (or p37 p80 p42) (or (not p87) p14 (not p95)) (or (not p66) p34 p85) (or (not p1) (not p44) p87) (or (not p60) p47 (not p8)) (or (not p12) p85 (not p71)) (or (not p27) p82 p35) (or p40 (not p59) p18) (or p84 (not p80) (not p98)) (or p89 p88 (not p20)) (or p37 p98 p71) (or (not p82) (not p86) p30) (or (not p72) p8 (not p96)) (or p18 (not p12) p67) (or (not p97) p56 (not p80)) (or p71 (not p12) (not p94)) (or (not p40) p40 p75) (or p0 p32 (not p26)) (or (not p95) (not p63) p70) (or p54 p15 p29) (or p59 p78 (not p48)) (or p47 (not p81) p67) (or p87 p27 p37) (or p26 p76 (not p83)) (or (not p42) p62 (not p52)) (or p39 (not p17) (not p36)) (or p60 p84 p4) (or p23 p76 (not p62)) (or p21 (not p46) p48) (or p94 (not p39) (not p19)) (or (not p24) p28 p9) (or p56 p31 p92) (or p18 p41 p14) (or (not p89) (not p94) (not p73)) (or p25 (not p1) p80) (or p46 p33 p82) (or (not p47) p93 p38) (or p6 p99 p90) (or p70 p34 (not p86)) (or p13 p39 p68) (or p90 p61 (not p30)) (or p10 (not p96) (not p29)) (or (not p51) p84 (not p18)) (or (not p68) (not p61) p48) (or p55 (not p85) (not p48)) (or p55 p33 p83) (or p71 (not p21) (not p43)) (or p21 p94 p61) (or (not p84) (not p50) p13) (or (not p70) p90 p3) (or (not p51) p64 (not p94)) (or (not p18) (not p77) p43) (or p81 p30 (not p92)) (or (not p23) p91 (not p19)) (or p52 p83 (not p84)) (or (not p51) (not p39) (not p94)) (or (not p88) p84 (not p90)) (or (not p34) (not p53) p34) (or (not p15) p9 p36) (or (not p20) (not p77) p9) (or p92 (not p97) p81) (or (not p6) p96 (not p73)) (or p69 (not p54) (not p31)) (or (not p79) (not p69) p34) (or p94 (not p10) p33) (or p85 p10 (not p72)) (or (not p38) p86 (not p60)) (or p8 (not p81) (not p75)) (or (not p96) (not p27) p2) (or p92 (not p83) (not p27)) (or p53 p6 (not p75)) (or p32 (not p25) p35) (or p58 p2 (not p96)) (or (not p20) (not p51) p74) (or p42 p97 (not p74)) (or p48 (not p87) (not p90)) (or p8 (not p49) p41) (or (not p22) p74 p67))
)
(check-sat)
(get-model)
